c PicoSAT SAT Solver Version 936
c Copyright (c) 2006 - 2010 Armin Biere JKU Linz
c gcc -Wall -Wextra -DNDEBUG -O3 -fomit-frame-pointer -finline-limit=1000000
c
c using 2 as default phase
c
c parsing /home/necavit/workspace_li/sat-solver/sample_problems/vars-300-7.cnf
c parsed header 'p cnf 300 1275'
c initialized 300 variables
c found 1275 non trivial clauses
c
c random number generator seed 0
c 
c  seconds     variables   original    learned     agility
c         level        used      conflicts    limit          MB
c 
c s   0.0   0.0   300   0.0  1275     0     0     0   0.0   0.1 
c 
c initial reduction limit 637 clauses
c 
c +   0.0  27.6   300  87.0  1275   100   100   700  13.0   0.1 
c R   0.0  27.6   300  87.0  1275   101   101   700  13.2   0.1 
c +   0.0  24.0   300  97.7  1275   250   250   770  23.3   0.2 
c N   0.0  23.4   300  99.0  1275   401   401   770  27.4   0.2 
c +   0.0  23.1   300  99.0  1275   475   475   847  28.4   0.2 
c +   0.0  21.5   300  99.7  1275   812   812   931  28.6   0.3 
c N   0.0  20.6   300 100.0  1275  1205   735   931  30.2   0.2 
c +   0.0  20.4   300 100.0  1275  1317   847  1024  30.0   0.3 
c +   0.0  19.3   300 100.0  1275  2074   571  1126  30.2   0.2 
c N   0.1  18.1   300 100.0  1275  3206  1134  1126  30.4   0.3 
c +   0.1  18.1   300 100.0  1275  3209   568  1238  30.4   0.2 
c +   0.1  17.2   300 100.0  1275  4911  1024  1361  29.5   0.3 
c +   0.1  16.6   300 100.0  1275  7464   826  1497  28.2   0.3 
c N   0.1  16.6   300 100.0  1275  8023  1385  1497  27.9   0.3 
c +   0.2  16.5   300 100.0  1275 11293   881  1646  29.1   0.3 
c +   0.3  15.8   300 100.0  1275 17036  1650  1810  29.6   0.4 
c N   0.3  15.6   300 100.0  1275 19256  1140  1810  27.7   0.3 
c +   0.4  15.4   300 100.0  1275 25650  1148  1991  26.8   0.3 
c +   0.6  14.9   300 100.0  1275 38571  1054  2190  29.1   0.3 
c N   0.7  14.7   300 100.0  1275 44907  1869  2190  28.9   0.4 
c 
c  seconds     variables   original    learned     agility
c         level        used      conflicts    limit          MB
c 
c +   0.9  14.3   300 100.0  1275 57952  1685  2409  27.2   0.4 
c 1   1.0  14.2   300 100.0  1275 62139  2238  2409  26.1   0.5 
c 
c  seconds     variables   original    learned     agility
c         level        used      conflicts    limit          MB
c 
s SATISFIABLE
v 1 -2 3 -4 5 -6 7 8 -9 -10 -11 12 13 14 -15 16 -17 18 19 -20 -21 -22 -23 -24
v 25 -26 -27 28 29 -30 31 32 33 -34 -35 36 37 -38 -39 40 41 42 43 -44 45 46 47
v -48 49 -50 51 -52 -53 -54 55 56 -57 58 59 60 61 62 -63 64 -65 66 67 68 -69 70
v -71 -72 -73 -74 -75 -76 77 -78 -79 80 81 -82 -83 84 -85 -86 87 -88 89 90 -91
v -92 93 94 95 -96 97 98 99 100 -101 -102 103 104 -105 106 -107 108 -109 -110
v -111 112 113 -114 -115 116 -117 -118 119 120 121 122 -123 124 -125 -126 -127
v -128 -129 130 131 -132 133 -134 135 136 137 -138 139 -140 -141 -142 143 -144
v 145 146 147 148 -149 150 -151 -152 153 -154 155 -156 157 158 159 -160 -161
v 162 -163 164 -165 -166 -167 -168 -169 -170 171 172 -173 -174 175 -176 -177
v 178 179 180 -181 182 -183 184 -185 186 -187 188 189 190 -191 -192 193 194
v -195 196 197 198 -199 -200 -201 -202 203 204 205 -206 207 -208 -209 210 -211
v 212 213 214 -215 216 -217 218 -219 -220 -221 222 223 224 225 226 -227 -228
v 229 -230 231 -232 -233 234 235 236 237 238 239 -240 241 -242 -243 -244 -245
v 246 247 248 -249 -250 251 -252 253 -254 255 -256 -257 -258 259 260 -261 -262
v 263 264 265 266 267 268 -269 -270 271 272 -273 274 -275 -276 -277 -278 279
v 280 -281 282 -283 284 -285 -286 287 288 -289 290 291 292 293 -294 295 296 297
v -298 299 300 0
c
c 0 iterations
c 2 restarts
c 62139 conflicts
c 0 adc conflicts
c 73614 decisions
c 0 fixed variables
c 995880 learned literals
c 23.2% deleted literals
c 4082109 propagations
c 100.0% variables used
c 1.0 seconds in library
c 4.3 megaprops/second
c 1 simplifications
c 65 reductions
c 8.9 MB recycled
c 0.5 MB maximally allocated
c 1.0 seconds total run time
Command exited with non-zero status 10
0.99
